NAME : in_house_8_6
TYPE : TSP
DIMENSION : 8
EDGE_WEIGHT_TYPE : EXPLICIT
EDGE_WEIGHT_FORMAT : UPPER_ROW
COMMENT : INVERSION_SHIFT=1
EDGE_WEIGHT_SECTION
52
42
34
22
58
4
59
17
12
37
53
15
30
1
19
25
46
7
54
26
56
53
11
34
15
64
14
28
